NAME : XML100_1363_13
DIMENSION : 101
NB_CLUSTERS : 4
CLUSTERING_ALG : KMedoids
CLUSTERING_PARAMS : k(3)
CLUSTERS
1 0
2 3 4 6 7 8 11 17 18 21 22 23 29 39 42 43 46 47 55 57 58 61 62 65 66 76 77 81 85
3 1 2 12 14 16 19 20 24 27 31 34 36 37 45 52 67 70 72 73 75 88 95 98
4 5 9 10 13 15 25 26 28 30 32 33 35 38 40 41 44 48 49 50 51 53 54 56 59 60 63 64 68 69 71 74 78 79 80 82 83 84 86 87 89 90 91 92 93 94 96 97 99 100
EOF